(set-info :smt-lib-version 2.6)
(set-logic QF_SLIA)
(set-info :source |
Generated by: Denghang Hu,
Generated on: 20230329,
Application: Evaluate string solvers
Description: The instance consists of:
(1) a regular membership predicate from the real world
(2) a regular membership predicate to sanitize danger letters in javascript such as <,>,&,",'
(3) a lower bound for string length
Target solver: Ostrich, Z3str3, CVC5
|)
(set-info :license "https://creativecommons.org/licenses/by/4.0/")
(set-info :category "industrial")
(set-info :status unknown)
        ;test regex ^([0-9a-f]{8})([0-9a-f]{32})([0-9a-f]{256})$
(declare-const X String)
(assert (str.in_re X (re.++ (re.++ (str.to_re "") (re.++ ((_ re.loop 8 8) (re.union (re.range "0" "9") (re.range "a" "f"))) (re.++ ((_ re.loop 32 32) (re.union (re.range "0" "9") (re.range "a" "f"))) ((_ re.loop 256 256) (re.union (re.range "0" "9") (re.range "a" "f")))))) (str.to_re ""))))
; sanitize danger characters:  < > ' " &
(assert (not (str.in_re X (re.++ re.all (re.union (str.to_re "\u{3c}") (str.to_re "\u{3e}") (str.to_re "\u{27}") (str.to_re "\u{22}") (str.to_re "\u{26}")) re.all))))
(assert (< 50 (str.len X)))
(check-sat)
(get-model)(exit)